Optimal - objective value 536.00000000
      0 C                       536                       0
      2 x_0_1                     3                       0
      3 x_0_2       53.0000000000001                       0
      4 x_0_3       146.000000000025                       0
      5 x_0_4       427.000000000025                       0
      6 x_0_5       445.000000000025                       0
      7 x_0_6                   528                       0
      8 x_1_0       75.0000000000001                       0
      9 x_1_1                   122                       0
     10 x_1_2                   247                       0
     11 x_1_3                   396                       0
     12 x_1_4                   480                       0
     13 x_1_5                   509                       0
     14 x_1_6                   522                       0
     15 x_2_0                   154                       0
     16 x_2_1                   221                       0
     17 x_2_2       273.000000000025                       0
     18 x_2_3       287.000000000025                       0
     19 x_2_4       363.000000000026                       0
     20 x_2_5       445.000000000025                       0
     21 x_2_6       515.000000000025                       0
     23 x_3_1                    11                       0
     24 x_3_2                    30                       0
     25 x_3_3                    53                       0
     26 x_3_4                    85                       0
     27 x_3_5                   104                       0
     28 x_3_6                   378                       0
     29 x_4_0       38.0000000000253                       0
     30 x_4_1       142.000000000025                       0
     31 x_4_2                   250                       0
     32 x_4_3       484.000000000026                       0
     33 x_4_4       514.000000000025                       0
     34 x_4_5       525.000000000025                       0
     35 x_4_6       534.000000000025                       0
     37 x_5_1                   208                       0
     38 x_5_2       297.000000000025                       0
     39 x_5_3       352.000000000025                       0
     40 x_5_4       479.000000000025                       0
     41 x_5_5       484.000000000025                       0
     42 x_5_6       497.000000000025                       0
     43 x_6_0                    51                       0
     44 x_6_1                    75                       0
     45 x_6_2                    95                       0
     46 x_6_3                   104                       0
     47 x_6_4       142.000000000025                       0
     48 x_6_5       156.000000000025                       0
     49 x_6_6                   217                       0
     51 x_7_1                    22                       0
     52 x_7_2                    42                       0
     53 x_7_3                    66                       1
     54 x_7_4                    85                       0
     55 x_7_5                   221                       0
     56 x_7_6                   504                       0
     57 x_8_0       61.0000000000001                       0
     58 x_8_1                   230                       0
     59 x_8_2       260.000000000025                       0
     60 x_8_3       352.000000000025                       0
     61 x_8_4       405.000000000025                       0
     62 x_8_5       466.000000000025                       0
     63 x_8_6       476.000000000025                       0
     65 y_0_1_1                   1                       0
     70 y_0_1_6                   1                       0
     72 y_0_2_1                   1                       0
     75 y_0_2_4                   1                       0
     79 y_0_3_1                   1                       0
     81 y_0_3_3                   1                       0
     82 y_0_3_4                   1                       0
     83 y_0_3_5                   1                       0
     84 y_0_3_6                   1                       0
     86 y_0_4_1                   1                       0
     89 y_0_4_4                   1                       0
     91 y_0_4_6                   1                       0
     93 y_0_5_1                   1                       0
     96 y_0_5_4                   1                       0
    100 y_0_6_1                   1                       0
    103 y_0_6_4                   1                       0
    104 y_0_6_5                   1                       0
    105 y_0_6_6                   1                       0
    107 y_0_7_1                   1                       0
    109 y_0_7_3                   1                       0
    111 y_0_7_5                   1                       0
    112 y_0_7_6                   1                       0
    114 y_0_8_1                   1                       0
    118 y_0_8_5                   1                       0
    121 y_1_2_1                   1                       0
    122 y_1_2_2                   1                       0
    124 y_1_2_4                   1                       0
    125 y_1_2_5                   1                       0
    127 y_1_3_0                   1                       0
    128 y_1_3_1                   1                    2233
    129 y_1_3_2                   1                       0
    130 y_1_3_3                   1                       0
    131 y_1_3_4                   1                       0
    132 y_1_3_5                   1                       0
    133 y_1_3_6                   1                       0
    135 y_1_4_1                   1                       0
    138 y_1_4_4                   1                       0
    139 y_1_4_5                   1                       0
    142 y_1_5_1                   1                       0
    144 y_1_5_3                   1                       0
    145 y_1_5_4                   1                       0
    146 y_1_5_5                   1                       0
    148 y_1_6_0                   1                       0
    149 y_1_6_1                   1                       0
    150 y_1_6_2                   1                       0
    151 y_1_6_3                   1                       0
    152 y_1_6_4                   1                       0
    153 y_1_6_5                   1                       0
    154 y_1_6_6                   1                       0
    155 y_1_7_0                   1                       0
    156 y_1_7_1                   1                       0
    157 y_1_7_2                   1                       0
    158 y_1_7_3                   1                       0
    160 y_1_7_5                   1                       0
    161 y_1_7_6                   1                       0
    163 y_1_8_1                   1                       0
    165 y_1_8_3                   1                       0
    166 y_1_8_4                   1                       0
    167 y_1_8_5                   1                       0
    169 y_2_3_0                   1                       0
    171 y_2_3_2                   1                       0
    172 y_2_3_3                   1                       0
    173 y_2_3_4                   1                       0
    174 y_2_3_5                   1                       0
    175 y_2_3_6                   1                       0
    180 y_2_4_4                   1                       0
    182 y_2_4_6                   1                       0
    184 y_2_5_1                   1                       0
    186 y_2_5_3                   1                       0
    187 y_2_5_4                   1                       0
    190 y_2_6_0                   1                       0
    191 y_2_6_1                   1                       0
    192 y_2_6_2                   1                       0
    193 y_2_6_3                   1                       0
    194 y_2_6_4                   1                       0
    195 y_2_6_5                   1                       0
    196 y_2_6_6                   1                       0
    197 y_2_7_0                   1                       0
    198 y_2_7_1                   1                    2233
    199 y_2_7_2                   1                       0
    200 y_2_7_3                   1                       0
    202 y_2_7_5                   1                       0
    203 y_2_7_6                   1                       0
    204 y_2_8_0                   1                       0
    207 y_2_8_3                   1                       0
    209 y_2_8_5                   1                       0
    212 y_3_4_1                   1                    2233
    219 y_3_5_1                   1                       0
    226 y_3_6_1                   1                       0
    227 y_3_6_2                   1                       0
    232 y_3_7_0                   1                       0
    233 y_3_7_1                   1                       0
    234 y_3_7_2                   1                       0
    235 y_3_7_3                   1                       0
    240 y_3_8_1                   1                       0
    246 y_4_5_0                   1                       0
    247 y_4_5_1                   1                       0
    248 y_4_5_2                   1                       0
    249 y_4_5_3                   1                       0
    251 y_4_5_5                   1                       0
    253 y_4_6_0                   1                       0
    254 y_4_6_1                   1                       0
    255 y_4_6_2                   1                       0
    256 y_4_6_3                   1                       0
    258 y_4_6_5                   1                       0
    259 y_4_6_6                   1                       0
    260 y_4_7_0                   1                       0
    261 y_4_7_1                   1                       0
    262 y_4_7_2                   1                       0
    263 y_4_7_3                   1                       0
    265 y_4_7_5                   1                       0
    266 y_4_7_6                   1                       0
    267 y_4_8_0                   1                       0
    268 y_4_8_1                   1                    2233
    269 y_4_8_2                   1                       0
    270 y_4_8_3                   1                       0
    272 y_4_8_5                   1                       0
    274 y_5_6_0                   1                       0
    276 y_5_6_2                   1                       0
    278 y_5_6_4                   1                       0
    279 y_5_6_5                   1                       0
    280 y_5_6_6                   1                       0
    281 y_5_7_0                   1                       0
    283 y_5_7_2                   1                       0
    284 y_5_7_3                   1                       0
    286 y_5_7_5                   1                       0
    287 y_5_7_6                   1                       0
    288 y_5_8_0                   1                       0
    290 y_5_8_2                   1                       0
    291 y_5_8_3                   1                       0
    293 y_5_8_5                   1                       0
    295 y_6_7_0                   1                       0
    297 y_6_7_2                   1                       0
    298 y_6_7_3                   1                       0
    301 y_6_7_6                   1                       0
    305 y_6_8_3                   1                       0
    313 y_7_8_4                   1                       0
